&CONTROL
/
&SYSTEM
   ntyp             = 1
   nat              = 1
   ibrav            = 0
/
&ELECTRONS
/
&IONS
/
&CELL
/

ATOMIC_SPECIES
Li 6.94 None

K_POINTS crystal_b
200
0.00000000000000 0.00000000000000 0.00000000000000 0
0.01063829787234 -0.01063829787234 0.01063829787234 0
0.02127659574468 -0.02127659574468 0.02127659574468 0
0.03191489361702 -0.03191489361702 0.03191489361702 0
0.04255319148936 -0.04255319148936 0.04255319148936 0
0.05319148936170 -0.05319148936170 0.05319148936170 0
0.06382978723404 -0.06382978723404 0.06382978723404 0
0.07446808510638 -0.07446808510638 0.07446808510638 0
0.08510638297872 -0.08510638297872 0.08510638297872 0
0.09574468085106 -0.09574468085106 0.09574468085106 0
0.10638297872340 -0.10638297872340 0.10638297872340 0
0.11702127659574 -0.11702127659574 0.11702127659574 0
0.12765957446809 -0.12765957446809 0.12765957446809 0
0.13829787234043 -0.13829787234043 0.13829787234043 0
0.14893617021277 -0.14893617021277 0.14893617021277 0
0.15957446808511 -0.15957446808511 0.15957446808511 0
0.17021276595745 -0.17021276595745 0.17021276595745 0
0.18085106382979 -0.18085106382979 0.18085106382979 0
0.19148936170213 -0.19148936170213 0.19148936170213 0
0.20212765957447 -0.20212765957447 0.20212765957447 0
0.21276595744681 -0.21276595744681 0.21276595744681 0
0.22340425531915 -0.22340425531915 0.22340425531915 0
0.23404255319149 -0.23404255319149 0.23404255319149 0
0.24468085106383 -0.24468085106383 0.24468085106383 0
0.25531914893617 -0.25531914893617 0.25531914893617 0
0.26595744680851 -0.26595744680851 0.26595744680851 0
0.27659574468085 -0.27659574468085 0.27659574468085 0
0.28723404255319 -0.28723404255319 0.28723404255319 0
0.29787234042553 -0.29787234042553 0.29787234042553 0
0.30851063829787 -0.30851063829787 0.30851063829787 0
0.31914893617021 -0.31914893617021 0.31914893617021 0
0.32978723404255 -0.32978723404255 0.32978723404255 0
0.34042553191489 -0.34042553191489 0.34042553191489 0
0.35106382978723 -0.35106382978723 0.35106382978723 0
0.36170212765957 -0.36170212765957 0.36170212765957 0
0.37234042553191 -0.37234042553191 0.37234042553191 0
0.38297872340426 -0.38297872340426 0.38297872340426 0
0.39361702127660 -0.39361702127660 0.39361702127660 0
0.40425531914894 -0.40425531914894 0.40425531914894 0
0.41489361702128 -0.41489361702128 0.41489361702128 0
0.42553191489362 -0.42553191489362 0.42553191489362 0
0.43617021276596 -0.43617021276596 0.43617021276596 0
0.44680851063830 -0.44680851063830 0.44680851063830 0
0.45744680851064 -0.45744680851064 0.45744680851064 0
0.46808510638298 -0.46808510638298 0.46808510638298 0
0.47872340425532 -0.47872340425532 0.47872340425532 0
0.48936170212766 -0.48936170212766 0.48936170212766 0
0.50000000000000 -0.50000000000000 0.50000000000000 0
0.48484848484848 -0.48484848484848 0.50000000000000 0
0.46969696969697 -0.46969696969697 0.50000000000000 0
0.45454545454545 -0.45454545454545 0.50000000000000 0
0.43939393939394 -0.43939393939394 0.50000000000000 0
0.42424242424242 -0.42424242424242 0.50000000000000 0
0.40909090909091 -0.40909090909091 0.50000000000000 0
0.39393939393939 -0.39393939393939 0.50000000000000 0
0.37878787878788 -0.37878787878788 0.50000000000000 0
0.36363636363636 -0.36363636363636 0.50000000000000 0
0.34848484848485 -0.34848484848485 0.50000000000000 0
0.33333333333333 -0.33333333333333 0.50000000000000 0
0.31818181818182 -0.31818181818182 0.50000000000000 0
0.30303030303030 -0.30303030303030 0.50000000000000 0
0.28787878787879 -0.28787878787879 0.50000000000000 0
0.27272727272727 -0.27272727272727 0.50000000000000 0
0.25757575757576 -0.25757575757576 0.50000000000000 0
0.24242424242424 -0.24242424242424 0.50000000000000 0
0.22727272727273 -0.22727272727273 0.50000000000000 0
0.21212121212121 -0.21212121212121 0.50000000000000 0
0.19696969696970 -0.19696969696970 0.50000000000000 0
0.18181818181818 -0.18181818181818 0.50000000000000 0
0.16666666666667 -0.16666666666667 0.50000000000000 0
0.15151515151515 -0.15151515151515 0.50000000000000 0
0.13636363636364 -0.13636363636364 0.50000000000000 0
0.12121212121212 -0.12121212121212 0.50000000000000 0
0.10606060606061 -0.10606060606061 0.50000000000000 0
0.09090909090909 -0.09090909090909 0.50000000000000 0
0.07575757575758 -0.07575757575758 0.50000000000000 0
0.06060606060606 -0.06060606060606 0.50000000000000 0
0.04545454545455 -0.04545454545455 0.50000000000000 0
0.03030303030303 -0.03030303030303 0.50000000000000 0
0.01515151515152 -0.01515151515152 0.50000000000000 0
0.00000000000000 0.00000000000000 0.50000000000000 0
0.00000000000000 0.00000000000000 0.48529411764706 0
0.00000000000000 0.00000000000000 0.47058823529412 0
0.00000000000000 0.00000000000000 0.45588235294118 0
0.00000000000000 0.00000000000000 0.44117647058824 0
0.00000000000000 0.00000000000000 0.42647058823529 0
0.00000000000000 0.00000000000000 0.41176470588235 0
0.00000000000000 0.00000000000000 0.39705882352941 0
0.00000000000000 0.00000000000000 0.38235294117647 0
0.00000000000000 0.00000000000000 0.36764705882353 0
0.00000000000000 0.00000000000000 0.35294117647059 0
0.00000000000000 0.00000000000000 0.33823529411765 0
0.00000000000000 0.00000000000000 0.32352941176471 0
0.00000000000000 0.00000000000000 0.30882352941176 0
0.00000000000000 0.00000000000000 0.29411764705882 0
0.00000000000000 0.00000000000000 0.27941176470588 0
0.00000000000000 0.00000000000000 0.26470588235294 0
0.00000000000000 0.00000000000000 0.25000000000000 0
0.00000000000000 0.00000000000000 0.23529411764706 0
0.00000000000000 0.00000000000000 0.22058823529412 0
0.00000000000000 0.00000000000000 0.20588235294118 0
0.00000000000000 0.00000000000000 0.19117647058824 0
0.00000000000000 0.00000000000000 0.17647058823529 0
0.00000000000000 0.00000000000000 0.16176470588235 0
0.00000000000000 0.00000000000000 0.14705882352941 0
0.00000000000000 0.00000000000000 0.13235294117647 0
0.00000000000000 0.00000000000000 0.11764705882353 0
0.00000000000000 0.00000000000000 0.10294117647059 0
0.00000000000000 0.00000000000000 0.08823529411765 0
0.00000000000000 0.00000000000000 0.07352941176471 0
0.00000000000000 0.00000000000000 0.05882352941176 0
0.00000000000000 0.00000000000000 0.04411764705882 0
0.00000000000000 0.00000000000000 0.02941176470588 0
0.00000000000000 0.00000000000000 0.01470588235294 0
0.00000000000000 0.00000000000000 0.00000000000000 0
0.00595238095238 0.00595238095238 0.00595238095238 0
0.01190476190476 0.01190476190476 0.01190476190476 0
0.01785714285714 0.01785714285714 0.01785714285714 0
0.02380952380952 0.02380952380952 0.02380952380952 0
0.02976190476190 0.02976190476190 0.02976190476190 0
0.03571428571429 0.03571428571429 0.03571428571429 0
0.04166666666667 0.04166666666667 0.04166666666667 0
0.04761904761905 0.04761904761905 0.04761904761905 0
0.05357142857143 0.05357142857143 0.05357142857143 0
0.05952380952381 0.05952380952381 0.05952380952381 0
0.06547619047619 0.06547619047619 0.06547619047619 0
0.07142857142857 0.07142857142857 0.07142857142857 0
0.07738095238095 0.07738095238095 0.07738095238095 0
0.08333333333333 0.08333333333333 0.08333333333333 0
0.08928571428571 0.08928571428571 0.08928571428571 0
0.09523809523810 0.09523809523810 0.09523809523810 0
0.10119047619048 0.10119047619048 0.10119047619048 0
0.10714285714286 0.10714285714286 0.10714285714286 0
0.11309523809524 0.11309523809524 0.11309523809524 0
0.11904761904762 0.11904761904762 0.11904761904762 0
0.12500000000000 0.12500000000000 0.12500000000000 0
0.13095238095238 0.13095238095238 0.13095238095238 0
0.13690476190476 0.13690476190476 0.13690476190476 0
0.14285714285714 0.14285714285714 0.14285714285714 0
0.14880952380952 0.14880952380952 0.14880952380952 0
0.15476190476190 0.15476190476190 0.15476190476190 0
0.16071428571429 0.16071428571429 0.16071428571429 0
0.16666666666667 0.16666666666667 0.16666666666667 0
0.17261904761905 0.17261904761905 0.17261904761905 0
0.17857142857143 0.17857142857143 0.17857142857143 0
0.18452380952381 0.18452380952381 0.18452380952381 0
0.19047619047619 0.19047619047619 0.19047619047619 0
0.19642857142857 0.19642857142857 0.19642857142857 0
0.20238095238095 0.20238095238095 0.20238095238095 0
0.20833333333333 0.20833333333333 0.20833333333333 0
0.21428571428571 0.21428571428571 0.21428571428571 0
0.22023809523810 0.22023809523810 0.22023809523810 0
0.22619047619048 0.22619047619048 0.22619047619048 0
0.23214285714286 0.23214285714286 0.23214285714286 0
0.23809523809524 0.23809523809524 0.23809523809524 0
0.24404761904762 0.24404761904762 0.24404761904762 0
0.25000000000000 0.25000000000000 0.25000000000000 0
0.25581395348837 0.23255813953488 0.25581395348837 0
0.26162790697674 0.21511627906977 0.26162790697674 0
0.26744186046512 0.19767441860465 0.26744186046512 0
0.27325581395349 0.18023255813953 0.27325581395349 0
0.27906976744186 0.16279069767442 0.27906976744186 0
0.28488372093023 0.14534883720930 0.28488372093023 0
0.29069767441860 0.12790697674419 0.29069767441860 0
0.29651162790698 0.11046511627907 0.29651162790698 0
0.30232558139535 0.09302325581395 0.30232558139535 0
0.30813953488372 0.07558139534884 0.30813953488372 0
0.31395348837209 0.05813953488372 0.31395348837209 0
0.31976744186047 0.04069767441860 0.31976744186047 0
0.32558139534884 0.02325581395349 0.32558139534884 0
0.33139534883721 0.00581395348837 0.33139534883721 0
0.33720930232558 -0.01162790697674 0.33720930232558 0
0.34302325581395 -0.02906976744186 0.34302325581395 0
0.34883720930233 -0.04651162790698 0.34883720930233 0
0.35465116279070 -0.06395348837209 0.35465116279070 0
0.36046511627907 -0.08139534883721 0.36046511627907 0
0.36627906976744 -0.09883720930233 0.36627906976744 0
0.37209302325581 -0.11627906976744 0.37209302325581 0
0.37790697674419 -0.13372093023256 0.37790697674419 0
0.38372093023256 -0.15116279069767 0.38372093023256 0
0.38953488372093 -0.16860465116279 0.38953488372093 0
0.39534883720930 -0.18604651162791 0.39534883720930 0
0.40116279069767 -0.20348837209302 0.40116279069767 0
0.40697674418605 -0.22093023255814 0.40697674418605 0
0.41279069767442 -0.23837209302326 0.41279069767442 0
0.41860465116279 -0.25581395348837 0.41860465116279 0
0.42441860465116 -0.27325581395349 0.42441860465116 0
0.43023255813953 -0.29069767441860 0.43023255813953 0
0.43604651162791 -0.30813953488372 0.43604651162791 0
0.44186046511628 -0.32558139534884 0.44186046511628 0
0.44767441860465 -0.34302325581395 0.44767441860465 0
0.45348837209302 -0.36046511627907 0.45348837209302 0
0.45930232558140 -0.37790697674419 0.45930232558140 0
0.46511627906977 -0.39534883720930 0.46511627906977 0
0.47093023255814 -0.41279069767442 0.47093023255814 0
0.47674418604651 -0.43023255813953 0.47674418604651 0
0.48255813953488 -0.44767441860465 0.48255813953488 0
0.48837209302326 -0.46511627906977 0.48837209302326 0
0.49418604651163 -0.48255813953488 0.49418604651163 0
0.50000000000000 -0.50000000000000 0.50000000000000 0

CELL_PARAMETERS angstrom
-1.74500000000000 1.74500000000000 1.74500000000000
1.74500000000000 -1.74500000000000 1.74500000000000
1.74500000000000 1.74500000000000 -1.74500000000000

ATOMIC_POSITIONS angstrom
Li 0.0000000000 0.0000000000 0.0000000000 

